Assets/LKHProbs~/skull.17.tsp
NAME : GeneratedProblem
COMMENT : SVGCrosshatch
TYPE : TSP
DIMENSION : 54
EDGE_WEIGHT_TYPE : EUC_2D
NODE_COORD_SECTION
1 9200 9500
2 9200 9600
3 9200 9900
4 9200 10000
5 9300 9300
6 9300 9400
7 9300 9500
8 9300 9600
9 9400 9100
10 9400 9200
11 9400 9300
12 9400 9400
13 9400 9500
14 9400 9600
15 9400 10200
16 9400 10300
17 9400 10400
18 9400 10500
19 9500 9300
20 9500 9400
21 9500 9500
22 9500 9600
23 9500 10200
24 9500 10300
25 9500 10400
26 9500 10500
27 9600 9500
28 9600 9600
29 9600 9700
30 9600 9800
31 9600 9900
32 9600 10000
33 9600 10100
34 9600 10200
35 9600 10300
36 9600 10400
37 9600 10500
38 9700 9700
39 9700 9800
40 9700 9900
41 9700 10000
42 9700 10100
43 9700 10200
44 9700 10300
45 9700 10400
46 9700 10500
47 9800 9900
48 9800 10000
49 9800 10100
50 9800 10200
51 9800 10300
52 9900 10100
53 9900 10200
54 9900 10300
EOF
