Assets/LKHProbs~/skull.17.out.txt
NAME : GeneratedProblem.5923.tour
COMMENT : Length = 5923
COMMENT : Found by LKH [Keld Helsgaun] Sun Nov 25 13:17:39 2018
TYPE : TOUR
DIMENSION : 54
TOUR_SECTION
1
2
8
3
4
15
16
17
18
26
37
46
45
44
35
36
25
24
23
34
43
50
51
54
53
52
49
42
33
32
41
48
47
40
31
30
39
38
29
28
27
21
22
14
13
12
20
19
9
10
11
5
6
7
-1
EOF
